10J3M/DAT/10J3MUNX-8.dat
10 3
40.71 6.3804
5.1993 2.2802
17.7724 4.2157
47.7973 6.9136
37.7746 6.1461
5.1303 2.265
37.8304 6.1506
10.0397 3.1685
29.815 5.4603
48.0935 6.9349
49.9153