10J3M/SOL/10J3MUNX-8.sol
solution status: optimal solution found
objective value:                     88.7868333333333
x#1#3                                               1 	(obj:0)
x#2#2                             0.00368513202546739 	(obj:0)
x#2#3                               0.996314867974533 	(obj:0)
x#3#1                                               1 	(obj:0)
x#4#1                                               1 	(obj:0)
x#5#2                                               1 	(obj:0)
x#6#1                                               1 	(obj:0)
x#7#2                                               1 	(obj:0)
x#8#1                                               1 	(obj:0)
x#9#2                                               1 	(obj:0)
x#10#1                              0.905581235857362 	(obj:0)
x#10#2                             0.0944187641426377 	(obj:0)
z                                    88.7868333333333 	(obj:1)
